5
18
0 32 50 16 39 11 71 57 9 37 64 65 10 52 6 25 75 5
15
0 62 15 2 43 31 8 38 30 54 24 49 17 23 48
15
0 42 22 55 40 41 63 21 60 68 46 47 73 1 61
18
0 72 3 51 26 12 56 14 28 4 36 19 69 59 70 35 20 27
14
0 29 44 53 18 58 13 34 7 45 33 66 74 67
